c random cnf
p cnf 50 50
-41 50 0
10 20 0
-5 10 0
-5 11 0
-26 -50 0
-18 -45 0
-1 -33 0
-37 -47 0
12 -25 0
-14 -47 0
-9 -40 0
8 -36 0
-13 -23 0
31 -39 0
11 50 0
17 -36 0
-1 -47 0
-21 43 0
-33 43 0
9 14 0
-9 -21 0
-6 40 0
12 -28 0
23 -24 0
15 48 0
3 -11 0
-15 41 0
-26 44 0
26 45 0
44 -46 0
-7 -9 0
6 10 0
-2 -4 0
7 -24 0
-9 -32 0
-28 48 0
-1 -39 0
-16 19 0
17 -32 0
-10 -22 0
7 -40 0
-29 -43 0
7 -27 0
-2 -45 0
45 46 0
22 28 0
10 -28 0
-14 47 0
33 -39 0
-15 40 0
